p edge 180 489
e 1 30
e 1 31
e 1 32
e 2 30
e 2 31
e 2 32
e 3 171
e 3 178
e 4 31
e 4 32
e 4 59
e 4 61
e 4 63
e 5 6
e 5 7
e 5 30
e 5 31
e 5 32
e 5 39
e 5 40
e 5 174
e 5 175
e 6 7
e 6 30
e 6 31
e 6 32
e 6 39
e 6 40
e 6 174
e 6 175
e 7 30
e 7 31
e 7 32
e 7 39
e 7 40
e 7 174
e 7 175
e 8 9
e 8 30
e 8 31
e 8 32
e 8 42
e 9 10
e 9 30
e 9 31
e 9 32
e 9 42
e 9 43
e 10 30
e 10 31
e 10 32
e 10 43
e 11 12
e 11 13
e 11 14
e 11 15
e 11 16
e 11 17
e 11 18
e 11 19
e 11 20
e 11 21
e 11 22
e 11 23
e 11 24
e 11 25
e 11 31
e 11 81
e 11 82
e 11 83
e 11 84
e 11 85
e 11 86
e 11 87
e 11 88
e 11 89
e 11 90
e 11 91
e 11 92
e 11 93
e 11 94
e 11 95
e 11 96
e 11 97
e 11 98
e 11 99
e 11 100
e 11 101
e 11 102
e 11 103
e 11 104
e 11 105
e 11 106
e 11 107
e 11 108
e 11 109
e 11 110
e 11 111
e 11 112
e 11 113
e 11 114
e 11 115
e 11 116
e 11 117
e 11 118
e 11 119
e 11 120
e 11 121
e 11 122
e 11 123
e 11 124
e 11 125
e 11 126
e 11 127
e 11 128
e 11 129
e 11 130
e 11 131
e 11 132
e 11 133
e 11 134
e 11 135
e 11 136
e 11 137
e 11 138
e 11 139
e 11 141
e 11 142
e 11 176
e 11 177
e 11 178
e 12 13
e 12 31
e 12 90
e 12 91
e 12 92
e 13 14
e 13 15
e 13 31
e 13 90
e 13 91
e 13 92
e 13 178
e 14 31
e 15 178
e 16 17
e 16 31
e 16 83
e 16 84
e 16 85
e 17 18
e 17 19
e 17 31
e 17 83
e 17 84
e 17 85
e 17 178
e 18 31
e 19 178
e 20 21
e 20 31
e 20 99
e 20 100
e 20 101
e 21 22
e 21 23
e 21 31
e 21 99
e 21 100
e 21 101
e 21 178
e 22 31
e 23 178
e 24 31
e 25 178
e 26 27
e 26 28
e 26 29
e 26 31
e 26 146
e 26 147
e 26 148
e 26 149
e 26 150
e 26 151
e 26 179
e 26 180
e 27 28
e 27 29
e 27 31
e 27 146
e 27 147
e 27 148
e 27 149
e 27 150
e 27 179
e 27 180
e 28 29
e 28 31
e 28 146
e 28 147
e 28 148
e 28 149
e 28 150
e 28 179
e 28 180
e 29 31
e 29 146
e 29 147
e 29 149
e 29 150
e 29 179
e 29 180
e 30 31
e 30 32
e 30 33
e 30 34
e 30 35
e 30 36
e 30 37
e 30 38
e 30 39
e 30 40
e 30 41
e 30 42
e 30 43
e 30 44
e 30 45
e 30 46
e 30 47
e 30 48
e 30 49
e 30 174
e 30 175
e 31 32
e 31 33
e 31 34
e 31 35
e 31 36
e 31 37
e 31 38
e 31 39
e 31 40
e 31 41
e 31 42
e 31 43
e 31 44
e 31 45
e 31 46
e 31 47
e 31 48
e 31 49
e 31 52
e 31 53
e 31 54
e 31 55
e 31 56
e 31 57
e 31 58
e 31 59
e 31 60
e 31 61
e 31 62
e 31 63
e 31 64
e 31 65
e 31 70
e 31 71
e 31 72
e 31 73
e 31 74
e 31 75
e 31 76
e 31 78
e 31 79
e 31 80
e 31 81
e 31 82
e 31 83
e 31 84
e 31 85
e 31 86
e 31 87
e 31 88
e 31 89
e 31 90
e 31 91
e 31 92
e 31 93
e 31 94
e 31 95
e 31 96
e 31 97
e 31 98
e 31 99
e 31 100
e 31 101
e 31 102
e 31 103
e 31 104
e 31 105
e 31 106
e 31 107
e 31 108
e 31 109
e 31 110
e 31 111
e 31 112
e 31 113
e 31 114
e 31 115
e 31 116
e 31 117
e 31 118
e 31 119
e 31 120
e 31 121
e 31 122
e 31 123
e 31 124
e 31 125
e 31 126
e 31 127
e 31 128
e 31 129
e 31 130
e 31 131
e 31 132
e 31 133
e 31 134
e 31 135
e 31 136
e 31 137
e 31 141
e 31 142
e 31 143
e 31 144
e 31 145
e 31 146
e 31 147
e 31 148
e 31 149
e 31 150
e 31 151
e 31 174
e 31 175
e 31 176
e 31 177
e 31 179
e 31 180
e 32 33
e 32 34
e 32 35
e 32 36
e 32 37
e 32 38
e 32 39
e 32 40
e 32 41
e 32 42
e 32 43
e 32 44
e 32 45
e 32 46
e 32 47
e 32 48
e 32 49
e 32 52
e 32 53
e 32 54
e 32 55
e 32 56
e 32 57
e 32 58
e 32 59
e 32 60
e 32 61
e 32 62
e 32 63
e 32 64
e 32 65
e 32 70
e 32 71
e 32 72
e 32 73
e 32 74
e 32 75
e 32 76
e 32 78
e 32 79
e 32 174
e 32 175
e 39 40
e 39 174
e 40 174
e 44 45
e 46 47
e 48 49
e 50 178
e 51 178
e 55 56
e 57 58
e 59 60
e 59 61
e 59 62
e 59 63
e 59 64
e 61 62
e 61 63
e 61 64
e 63 64
e 66 178
e 67 178
e 68 178
e 69 178
e 74 75
e 77 178
e 83 84
e 83 85
e 84 85
e 87 88
e 90 91
e 90 92
e 91 92
e 94 95
e 96 97
e 99 100
e 99 101
e 100 101
e 103 104
e 105 176
e 106 177
e 107 177
e 108 109
e 110 111
e 112 113
e 114 115
e 116 117
e 118 119
e 120 121
e 122 123
e 124 125
e 126 127
e 128 129
e 130 131
e 132 133
e 134 135
e 134 136
e 134 137
e 135 136
e 135 137
e 136 137
e 138 178
e 139 178
e 140 178
e 144 145
e 146 147
e 146 148
e 146 149
e 146 150
e 146 151
e 146 179
e 146 180
e 147 148
e 147 149
e 147 150
e 147 151
e 147 179
e 147 180
e 149 179
e 149 180
e 150 179
e 150 180
e 153 178
e 154 178
e 155 178
e 156 178
e 157 178
e 165 166
e 165 167
e 166 167
e 168 169
e 168 170
e 169 170
e 171 178
e 172 178
e 173 178
e 174 175
e 179 180
